p cnf 174 2716
163 -21 0
67 -155 0
163 -31 0
163 -32 0
53 -73 0
127 -132 0
68 -71 0
158 -164 0
163 -25 0
170 -172 0
133 -171 0
163 -46 0
163 -45 0
163 -22 0
160 -17 0
174 -169 0
160 -140 0
163 -26 0
163 -41 0
163 -40 0
172 -54 0
56 -105 0
162 -163 0
174 -168 0
172 -55 0
163 -39 0
163 -33 0
163 -34 0
160 -61 0
163 -29 0
144 -145 0
160 -69 0
163 -36 0
56 -170 0
2 -107 0
107 -2 0
5 -58 0
58 -5 0
7 -146 0
146 -7 0
11 -57 0
57 -11 0
-67 -131 0
-60 -20 0
-155 -71 0
-25 -60 0
-172 -127 0
-173 -147 0
-170 -62 0
-67 -159 0
-170 -57 0
-26 -60 0
-41 -60 0
-40 -60 0
-170 -58 0
-39 -60 0
-151 -166 0
-60 -29 0
-60 -36 0
56 127 138 0
-56 -127 0
-138 -56 0
-138 -127 0
147 71 67 0
-67 -71 0
-67 -147 0
-71 -147 0
155 159 131 0
-155 -131 0
-131 -159 0
-155 -159 0
166 167 168 169 0
-166 -167 0
-168 -166 0
-169 -166 0
-168 -167 0
-169 -167 0
-169 -168 0
14 15 0
-14 -15 0
8 13 0
-8 -13 0
161 160 0
-160 -161 0
18 19 21 22 31 32 33 34 20 23 24 25 26 35 36 37 38 39 40 41 27 28 29 42 43 44 45 46 30 48 47 0
-18 -19 0
-18 -20 0
-21 -18 0
-22 -18 0
-18 -23 0
-18 -24 0
-25 -18 0
-26 -18 0
-18 -27 0
-18 -28 0
-29 -18 0
-30 -18 0
-31 -18 0
-32 -18 0
-33 -18 0
-34 -18 0
-18 -35 0
-36 -18 0
-37 -18 0
-18 -38 0
-39 -18 0
-40 -18 0
-41 -18 0
-18 -42 0
-18 -43 0
-18 -44 0
-45 -18 0
-46 -18 0
-47 -18 0
-48 -18 0
-19 -20 0
-21 -19 0
-22 -19 0
-19 -23 0
-24 -19 0
-25 -19 0
-26 -19 0
-19 -27 0
-19 -28 0
-29 -19 0
-30 -19 0
-31 -19 0
-32 -19 0
-33 -19 0
-34 -19 0
-19 -35 0
-36 -19 0
-37 -19 0
-19 -38 0
-39 -19 0
-40 -19 0
-41 -19 0
-19 -42 0
-19 -43 0
-19 -44 0
-45 -19 0
-46 -19 0
-47 -19 0
-48 -19 0
-21 -20 0
-22 -20 0
-23 -20 0
-24 -20 0
-25 -20 0
-26 -20 0
-20 -27 0
-28 -20 0
-29 -20 0
-30 -20 0
-31 -20 0
-32 -20 0
-33 -20 0
-34 -20 0
-20 -35 0
-36 -20 0
-37 -20 0
-38 -20 0
-39 -20 0
-40 -20 0
-41 -20 0
-20 -42 0
-43 -20 0
-44 -20 0
-45 -20 0
-46 -20 0
-47 -20 0
-48 -20 0
-21 -22 0
-21 -23 0
-21 -24 0
-21 -25 0
-21 -26 0
-21 -27 0
-21 -28 0
-21 -29 0
-21 -30 0
-21 -31 0
-21 -32 0
-21 -33 0
-21 -34 0
-21 -35 0
-21 -36 0
-21 -37 0
-21 -38 0
-21 -39 0
-21 -40 0
-21 -41 0
-21 -42 0
-21 -43 0
-21 -44 0
-21 -45 0
-21 -46 0
-21 -47 0
-21 -48 0
-22 -23 0
-22 -24 0
-25 -22 0
-22 -26 0
-22 -27 0
-22 -28 0
-22 -29 0
-22 -30 0
-31 -22 0
-32 -22 0
-22 -33 0
-22 -34 0
-22 -35 0
-22 -36 0
-22 -37 0
-22 -38 0
-22 -39 0
-22 -40 0
-22 -41 0
-22 -42 0
-22 -43 0
-22 -44 0
-45 -22 0
-46 -22 0
-47 -22 0
-48 -22 0
-24 -23 0
-25 -23 0
-26 -23 0
-23 -27 0
-28 -23 0
-29 -23 0
-30 -23 0
-31 -23 0
-32 -23 0
-33 -23 0
-34 -23 0
-23 -35 0
-36 -23 0
-37 -23 0
-23 -38 0
-39 -23 0
-40 -23 0
-41 -23 0
-23 -42 0
-43 -23 0
-23 -44 0
-45 -23 0
-46 -23 0
-47 -23 0
-48 -23 0
-25 -24 0
-26 -24 0
-24 -27 0
-24 -28 0
-29 -24 0
-30 -24 0
-31 -24 0
-32 -24 0
-33 -24 0
-34 -24 0
-24 -35 0
-36 -24 0
-37 -24 0
-24 -38 0
-39 -24 0
-40 -24 0
-41 -24 0
-24 -42 0
-24 -43 0
-24 -44 0
-45 -24 0
-46 -24 0
-47 -24 0
-48 -24 0
-25 -26 0
-25 -27 0
-25 -28 0
-25 -29 0
-25 -30 0
-31 -25 0
-32 -25 0
-25 -33 0
-25 -34 0
-25 -35 0
-25 -36 0
-25 -37 0
-25 -38 0
-25 -39 0
-25 -40 0
-25 -41 0
-25 -42 0
-25 -43 0
-25 -44 0
-25 -45 0
-25 -46 0
-25 -47 0
-25 -48 0
-26 -27 0
-26 -28 0
-26 -29 0
-26 -30 0
-31 -26 0
-32 -26 0
-26 -33 0
-26 -34 0
-26 -35 0
-26 -36 0
-26 -37 0
-26 -38 0
-26 -39 0
-26 -40 0
-26 -41 0
-26 -42 0
-26 -43 0
-26 -44 0
-45 -26 0
-46 -26 0
-47 -26 0
-48 -26 0
-28 -27 0
-29 -27 0
-30 -27 0
-31 -27 0
-32 -27 0
-33 -27 0
-34 -27 0
-27 -35 0
-36 -27 0
-37 -27 0
-38 -27 0
-39 -27 0
-40 -27 0
-41 -27 0
-27 -42 0
-43 -27 0
-44 -27 0
-45 -27 0
-46 -27 0
-47 -27 0
-48 -27 0
-29 -28 0
-30 -28 0
-31 -28 0
-32 -28 0
-33 -28 0
-34 -28 0
-28 -35 0
-36 -28 0
-37 -28 0
-28 -38 0
-39 -28 0
-40 -28 0
-41 -28 0
-28 -42 0
-28 -43 0
-28 -44 0
-45 -28 0
-46 -28 0
-47 -28 0
-48 -28 0
-29 -30 0
-31 -29 0
-32 -29 0
-33 -29 0
-34 -29 0
-29 -35 0
-29 -36 0
-29 -37 0
-29 -38 0
-39 -29 0
-40 -29 0
-41 -29 0
-29 -42 0
-29 -43 0
-29 -44 0
-45 -29 0
-46 -29 0
-47 -29 0
-48 -29 0
-31 -30 0
-32 -30 0
-33 -30 0
-34 -30 0
-30 -35 0
-30 -36 0
-30 -37 0
-30 -38 0
-39 -30 0
-40 -30 0
-41 -30 0
-30 -42 0
-30 -43 0
-30 -44 0
-45 -30 0
-46 -30 0
-47 -30 0
-48 -30 0
-31 -32 0
-31 -33 0
-31 -34 0
-31 -35 0
-31 -36 0
-31 -37 0
-31 -38 0
-31 -39 0
-31 -40 0
-31 -41 0
-31 -42 0
-31 -43 0
-31 -44 0
-31 -45 0
-31 -46 0
-31 -47 0
-31 -48 0
-32 -33 0
-32 -34 0
-32 -35 0
-32 -36 0
-32 -37 0
-32 -38 0
-32 -39 0
-32 -40 0
-32 -41 0
-32 -42 0
-32 -43 0
-32 -44 0
-32 -45 0
-32 -46 0
-32 -47 0
-32 -48 0
-33 -34 0
-33 -35 0
-33 -36 0
-33 -37 0
-33 -38 0
-39 -33 0
-40 -33 0
-41 -33 0
-33 -42 0
-33 -43 0
-33 -44 0
-45 -33 0
-46 -33 0
-47 -33 0
-48 -33 0
-34 -35 0
-34 -36 0
-34 -37 0
-34 -38 0
-39 -34 0
-40 -34 0
-41 -34 0
-34 -42 0
-34 -43 0
-34 -44 0
-45 -34 0
-46 -34 0
-47 -34 0
-48 -34 0
-36 -35 0
-37 -35 0
-38 -35 0
-39 -35 0
-40 -35 0
-41 -35 0
-42 -35 0
-43 -35 0
-44 -35 0
-45 -35 0
-46 -35 0
-47 -35 0
-48 -35 0
-36 -37 0
-36 -38 0
-39 -36 0
-40 -36 0
-41 -36 0
-36 -42 0
-36 -43 0
-36 -44 0
-45 -36 0
-46 -36 0
-47 -36 0
-48 -36 0
-37 -38 0
-39 -37 0
-40 -37 0
-41 -37 0
-37 -42 0
-37 -43 0
-37 -44 0
-45 -37 0
-46 -37 0
-47 -37 0
-48 -37 0
-39 -38 0
-40 -38 0
-41 -38 0
-38 -42 0
-43 -38 0
-44 -38 0
-45 -38 0
-46 -38 0
-47 -38 0
-48 -38 0
-40 -39 0
-41 -39 0
-39 -42 0
-39 -43 0
-39 -44 0
-45 -39 0
-46 -39 0
-47 -39 0
-48 -39 0
-41 -40 0
-40 -42 0
-40 -43 0
-40 -44 0
-45 -40 0
-46 -40 0
-47 -40 0
-48 -40 0
-41 -42 0
-41 -43 0
-41 -44 0
-45 -41 0
-46 -41 0
-47 -41 0
-48 -41 0
-43 -42 0
-44 -42 0
-45 -42 0
-46 -42 0
-47 -42 0
-48 -42 0
-43 -44 0
-45 -43 0
-46 -43 0
-47 -43 0
-48 -43 0
-45 -44 0
-46 -44 0
-47 -44 0
-48 -44 0
-46 -45 0
-47 -45 0
-48 -45 0
-46 -47 0
-46 -48 0
-47 -48 0
1 3 4 6 9 10 12 16 49 0
-3 -1 0
-4 -1 0
-1 -6 0
-1 -9 0
-1 -10 0
-1 -12 0
-1 -16 0
-1 -49 0
-4 -3 0
-3 -6 0
-3 -9 0
-3 -10 0
-3 -12 0
-3 -16 0
-3 -49 0
-4 -6 0
-4 -9 0
-4 -10 0
-4 -12 0
-4 -16 0
-4 -49 0
-6 -9 0
-6 -10 0
-6 -12 0
-6 -16 0
-6 -49 0
-9 -10 0
-9 -12 0
-9 -16 0
-9 -49 0
-10 -12 0
-10 -16 0
-10 -49 0
-12 -16 0
-12 -49 0
-16 -49 0
83 126 88 89 90 87 84 85 86 77 78 79 125 91 92 93 95 96 97 94 104 80 81 82 98 99 100 101 102 103 75 76 113 114 115 110 111 112 119 120 121 116 117 118 122 123 124 0
-76 -75 0
-75 -77 0
-78 -75 0
-75 -79 0
-75 -80 0
-81 -75 0
-75 -82 0
-75 -83 0
-75 -84 0
-85 -75 0
-75 -86 0
-87 -75 0
-75 -88 0
-75 -89 0
-90 -75 0
-75 -91 0
-75 -92 0
-75 -93 0
-75 -94 0
-75 -95 0
-75 -96 0
-75 -97 0
-75 -98 0
-99 -75 0
-75 -100 0
-75 -101 0
-102 -75 0
-75 -103 0
-75 -104 0
-110 -75 0
-111 -75 0
-75 -112 0
-75 -113 0
-75 -114 0
-75 -115 0
-116 -75 0
-117 -75 0
-75 -118 0
-75 -119 0
-75 -120 0
-75 -121 0
-122 -75 0
-123 -75 0
-124 -75 0
-75 -125 0
-75 -126 0
-76 -77 0
-76 -78 0
-76 -79 0
-76 -80 0
-76 -81 0
-76 -82 0
-76 -83 0
-76 -84 0
-85 -76 0
-76 -86 0
-76 -87 0
-76 -88 0
-76 -89 0
-76 -90 0
-76 -91 0
-76 -92 0
-76 -93 0
-76 -94 0
-76 -95 0
-76 -96 0
-76 -97 0
-76 -98 0
-76 -99 0
-76 -100 0
-76 -101 0
-76 -102 0
-76 -103 0
-76 -104 0
-110 -76 0
-76 -111 0
-76 -112 0
-76 -113 0
-76 -114 0
-76 -115 0
-76 -116 0
-76 -117 0
-76 -118 0
-76 -119 0
-76 -120 0
-76 -121 0
-76 -122 0
-76 -123 0
-76 -124 0
-76 -125 0
-76 -126 0
-78 -77 0
-79 -77 0
-77 -80 0
-81 -77 0
-82 -77 0
-83 -77 0
-77 -84 0
-85 -77 0
-86 -77 0
-87 -77 0
-88 -77 0
-77 -89 0
-90 -77 0
-91 -77 0
-92 -77 0
-93 -77 0
-94 -77 0
-95 -77 0
-96 -77 0
-97 -77 0
-98 -77 0
-99 -77 0
-77 -100 0
-101 -77 0
-102 -77 0
-77 -103 0
-104 -77 0
-110 -77 0
-111 -77 0
-112 -77 0
-113 -77 0
-114 -77 0
-115 -77 0
-116 -77 0
-117 -77 0
-118 -77 0
-119 -77 0
-120 -77 0
-121 -77 0
-122 -77 0
-123 -77 0
-124 -77 0
-125 -77 0
-77 -126 0
-78 -79 0
-78 -80 0
-78 -81 0
-78 -82 0
-78 -83 0
-78 -84 0
-85 -78 0
-78 -86 0
-78 -87 0
-78 -88 0
-78 -89 0
-78 -90 0
-78 -91 0
-78 -92 0
-78 -93 0
-78 -94 0
-78 -95 0
-78 -96 0
-78 -97 0
-78 -98 0
-78 -99 0
-78 -100 0
-78 -101 0
-78 -102 0
-78 -103 0
-78 -104 0
-110 -78 0
-78 -111 0
-78 -112 0
-78 -113 0
-78 -114 0
-78 -115 0
-78 -116 0
-78 -117 0
-78 -118 0
-78 -119 0
-78 -120 0
-78 -121 0
-78 -122 0
-78 -123 0
-78 -124 0
-78 -125 0
-78 -126 0
-79 -80 0
-81 -79 0
-79 -82 0
-79 -83 0
-79 -84 0
-85 -79 0
-79 -86 0
-87 -79 0
-79 -88 0
-79 -89 0
-90 -79 0
-79 -91 0
-79 -92 0
-79 -93 0
-79 -94 0
-79 -95 0
-79 -96 0
-79 -97 0
-79 -98 0
-99 -79 0
-79 -100 0
-79 -101 0
-102 -79 0
-79 -103 0
-79 -104 0
-110 -79 0
-111 -79 0
-79 -112 0
-79 -113 0
-79 -114 0
-79 -115 0
-116 -79 0
-117 -79 0
-79 -118 0
-79 -119 0
-79 -120 0
-79 -121 0
-122 -79 0
-123 -79 0
-124 -79 0
-79 -125 0
-79 -126 0
-81 -80 0
-82 -80 0
-83 -80 0
-84 -80 0
-85 -80 0
-86 -80 0
-87 -80 0
-88 -80 0
-89 -80 0
-90 -80 0
-91 -80 0
-92 -80 0
-93 -80 0
-94 -80 0
-95 -80 0
-96 -80 0
-97 -80 0
-98 -80 0
-99 -80 0
-100 -80 0
-101 -80 0
-102 -80 0
-103 -80 0
-104 -80 0
-110 -80 0
-111 -80 0
-112 -80 0
-113 -80 0
-114 -80 0
-115 -80 0
-116 -80 0
-117 -80 0
-118 -80 0
-119 -80 0
-120 -80 0
-121 -80 0
-122 -80 0
-123 -80 0
-124 -80 0
-125 -80 0
-126 -80 0
-81 -82 0
-81 -83 0
-81 -84 0
-85 -81 0
-81 -86 0
-87 -81 0
-81 -88 0
-81 -89 0
-81 -90 0
-81 -91 0
-81 -92 0
-81 -93 0
-81 -94 0
-81 -95 0
-81 -96 0
-81 -97 0
-81 -98 0
-81 -99 0
-81 -100 0
-81 -101 0
-81 -102 0
-81 -103 0
-81 -104 0
-110 -81 0
-81 -111 0
-81 -112 0
-81 -113 0
-81 -114 0
-81 -115 0
-81 -116 0
-117 -81 0
-81 -118 0
-81 -119 0
-81 -120 0
-81 -121 0
-81 -122 0
-123 -81 0
-124 -81 0
-81 -125 0
-81 -126 0
-82 -83 0
-82 -84 0
-85 -82 0
-86 -82 0
-87 -82 0
-82 -88 0
-82 -89 0
-90 -82 0
-82 -91 0
-82 -92 0
-82 -93 0
-82 -94 0
-95 -82 0
-82 -96 0
-82 -97 0
-82 -98 0
-99 -82 0
-82 -100 0
-101 -82 0
-102 -82 0
-82 -103 0
-104 -82 0
-110 -82 0
-111 -82 0
-82 -112 0
-82 -113 0
-82 -114 0
-82 -115 0
-116 -82 0
-117 -82 0
-82 -118 0
-82 -119 0
-82 -120 0
-82 -121 0
-122 -82 0
-123 -82 0
-124 -82 0
-82 -125 0
-82 -126 0
-83 -84 0
-85 -83 0
-86 -83 0
-87 -83 0
-83 -88 0
-83 -89 0
-90 -83 0
-83 -91 0
-83 -92 0
-83 -93 0
-83 -94 0
-95 -83 0
-83 -96 0
-83 -97 0
-98 -83 0
-99 -83 0
-83 -100 0
-101 -83 0
-102 -83 0
-83 -103 0
-104 -83 0
-110 -83 0
-111 -83 0
-83 -112 0
-83 -113 0
-83 -114 0
-83 -115 0
-116 -83 0
-117 -83 0
-83 -118 0
-83 -119 0
-83 -120 0
-83 -121 0
-122 -83 0
-123 -83 0
-124 -83 0
-83 -125 0
-83 -126 0
-85 -84 0
-86 -84 0
-87 -84 0
-88 -84 0
-89 -84 0
-90 -84 0
-91 -84 0
-92 -84 0
-93 -84 0
-94 -84 0
-95 -84 0
-96 -84 0
-97 -84 0
-98 -84 0
-99 -84 0
-100 -84 0
-101 -84 0
-102 -84 0
-103 -84 0
-104 -84 0
-110 -84 0
-111 -84 0
-112 -84 0
-113 -84 0
-114 -84 0
-115 -84 0
-116 -84 0
-117 -84 0
-118 -84 0
-119 -84 0
-120 -84 0
-121 -84 0
-122 -84 0
-123 -84 0
-124 -84 0
-125 -84 0
-126 -84 0
-85 -86 0
-85 -87 0
-85 -88 0
-85 -89 0
-85 -90 0
-85 -91 0
-85 -92 0
-85 -93 0
-85 -94 0
-85 -95 0
-85 -96 0
-85 -97 0
-85 -98 0
-85 -99 0
-85 -100 0
-85 -101 0
-85 -102 0
-85 -103 0
-85 -104 0
-110 -85 0
-85 -111 0
-85 -112 0
-85 -113 0
-85 -114 0
-85 -115 0
-85 -116 0
-85 -117 0
-85 -118 0
-85 -119 0
-85 -120 0
-85 -121 0
-85 -122 0
-85 -123 0
-85 -124 0
-85 -125 0
-85 -126 0
-87 -86 0
-86 -88 0
-86 -89 0
-90 -86 0
-86 -91 0
-86 -92 0
-86 -93 0
-86 -94 0
-86 -95 0
-86 -96 0
-86 -97 0
-86 -98 0
-99 -86 0
-86 -100 0
-86 -101 0
-102 -86 0
-86 -103 0
-104 -86 0
-110 -86 0
-111 -86 0
-86 -112 0
-86 -113 0
-86 -114 0
-86 -115 0
-116 -86 0
-117 -86 0
-86 -118 0
-86 -119 0
-86 -120 0
-86 -121 0
-122 -86 0
-123 -86 0
-124 -86 0
-86 -125 0
-86 -126 0
-87 -88 0
-87 -89 0
-87 -90 0
-87 -91 0
-87 -92 0
-87 -93 0
-87 -94 0
-87 -95 0
-87 -96 0
-87 -97 0
-87 -98 0
-87 -99 0
-87 -100 0
-87 -101 0
-87 -102 0
-87 -103 0
-87 -104 0
-110 -87 0
-87 -111 0
-87 -112 0
-87 -113 0
-87 -114 0
-87 -115 0
-87 -116 0
-87 -117 0
-87 -118 0
-87 -119 0
-87 -120 0
-87 -121 0
-87 -122 0
-123 -87 0
-124 -87 0
-87 -125 0
-87 -126 0
-88 -89 0
-90 -88 0
-91 -88 0
-88 -92 0
-88 -93 0
-94 -88 0
-95 -88 0
-88 -96 0
-88 -97 0
-98 -88 0
-99 -88 0
-88 -100 0
-101 -88 0
-102 -88 0
-88 -103 0
-104 -88 0
-110 -88 0
-111 -88 0
-88 -112 0
-88 -113 0
-88 -114 0
-88 -115 0
-116 -88 0
-117 -88 0
-88 -118 0
-88 -119 0
-120 -88 0
-88 -121 0
-122 -88 0
-123 -88 0
-124 -88 0
-88 -125 0
-88 -126 0
-90 -89 0
-91 -89 0
-92 -89 0
-93 -89 0
-94 -89 0
-95 -89 0
-96 -89 0
-97 -89 0
-98 -89 0
-99 -89 0
-89 -100 0
-101 -89 0
-102 -89 0
-103 -89 0
-104 -89 0
-110 -89 0
-111 -89 0
-112 -89 0
-113 -89 0
-114 -89 0
-115 -89 0
-116 -89 0
-117 -89 0
-118 -89 0
-119 -89 0
-120 -89 0
-121 -89 0
-122 -89 0
-123 -89 0
-124 -89 0
-125 -89 0
-89 -126 0
-90 -91 0
-90 -92 0
-90 -93 0
-90 -94 0
-90 -95 0
-90 -96 0
-90 -97 0
-90 -98 0
-99 -90 0
-90 -100 0
-90 -101 0
-90 -102 0
-90 -103 0
-90 -104 0
-110 -90 0
-90 -111 0
-90 -112 0
-90 -113 0
-90 -114 0
-90 -115 0
-90 -116 0
-117 -90 0
-90 -118 0
-90 -119 0
-90 -120 0
-90 -121 0
-90 -122 0
-123 -90 0
-124 -90 0
-90 -125 0
-90 -126 0
-91 -92 0
-91 -93 0
-91 -94 0
-95 -91 0
-91 -96 0
-91 -97 0
-98 -91 0
-99 -91 0
-91 -100 0
-101 -91 0
-102 -91 0
-91 -103 0
-104 -91 0
-110 -91 0
-111 -91 0
-91 -112 0
-91 -113 0
-91 -114 0
-91 -115 0
-116 -91 0
-117 -91 0
-91 -118 0
-91 -119 0
-91 -120 0
-91 -121 0
-122 -91 0
-123 -91 0
-124 -91 0
-91 -125 0
-91 -126 0
-93 -92 0
-94 -92 0
-95 -92 0
-96 -92 0
-97 -92 0
-98 -92 0
-99 -92 0
-92 -100 0
-101 -92 0
-102 -92 0
-92 -103 0
-104 -92 0
-110 -92 0
-111 -92 0
-112 -92 0
-113 -92 0
-114 -92 0
-115 -92 0
-116 -92 0
-117 -92 0
-118 -92 0
-119 -92 0
-120 -92 0
-121 -92 0
-122 -92 0
-123 -92 0
-124 -92 0
-125 -92 0
-92 -126 0
-94 -93 0
-95 -93 0
-96 -93 0
-93 -97 0
-98 -93 0
-99 -93 0
-93 -100 0
-101 -93 0
-102 -93 0
-93 -103 0
-104 -93 0
-110 -93 0
-111 -93 0
-93 -112 0
-93 -113 0
-114 -93 0
-93 -115 0
-116 -93 0
-117 -93 0
-93 -118 0
-119 -93 0
-120 -93 0
-93 -121 0
-122 -93 0
-123 -93 0
-124 -93 0
-93 -125 0
-93 -126 0
-95 -94 0
-94 -96 0
-94 -97 0
-98 -94 0
-99 -94 0
-94 -100 0
-101 -94 0
-102 -94 0
-94 -103 0
-104 -94 0
-110 -94 0
-111 -94 0
-94 -112 0
-94 -113 0
-94 -114 0
-94 -115 0
-116 -94 0
-117 -94 0
-94 -118 0
-94 -119 0
-94 -120 0
-94 -121 0
-122 -94 0
-123 -94 0
-124 -94 0
-94 -125 0
-94 -126 0
-95 -96 0
-95 -97 0
-95 -98 0
-99 -95 0
-95 -100 0
-101 -95 0
-102 -95 0
-95 -103 0
-104 -95 0
-110 -95 0
-111 -95 0
-95 -112 0
-95 -113 0
-95 -114 0
-95 -115 0
-116 -95 0
-117 -95 0
-95 -118 0
-95 -119 0
-95 -120 0
-95 -121 0
-122 -95 0
-123 -95 0
-124 -95 0
-95 -125 0
-95 -126 0
-96 -97 0
-98 -96 0
-99 -96 0
-96 -100 0
-101 -96 0
-102 -96 0
-96 -103 0
-104 -96 0
-110 -96 0
-111 -96 0
-96 -112 0
-96 -113 0
-114 -96 0
-96 -115 0
-116 -96 0
-117 -96 0
-96 -118 0
-119 -96 0
-120 -96 0
-96 -121 0
-122 -96 0
-123 -96 0
-124 -96 0
-96 -125 0
-96 -126 0
-98 -97 0
-99 -97 0
-97 -100 0
-101 -97 0
-102 -97 0
-97 -103 0
-104 -97 0
-110 -97 0
-111 -97 0
-112 -97 0
-113 -97 0
-114 -97 0
-115 -97 0
-116 -97 0
-117 -97 0
-118 -97 0
-119 -97 0
-120 -97 0
-121 -97 0
-122 -97 0
-123 -97 0
-124 -97 0
-125 -97 0
-97 -126 0
-99 -98 0
-98 -100 0
-101 -98 0
-102 -98 0
-98 -103 0
-104 -98 0
-110 -98 0
-111 -98 0
-98 -112 0
-98 -113 0
-98 -114 0
-98 -115 0
-116 -98 0
-117 -98 0
-98 -118 0
-98 -119 0
-98 -120 0
-98 -121 0
-122 -98 0
-123 -98 0
-124 -98 0
-98 -125 0
-98 -126 0
-99 -100 0
-99 -101 0
-99 -102 0
-99 -103 0
-99 -104 0
-110 -99 0
-99 -111 0
-99 -112 0
-99 -113 0
-99 -114 0
-99 -115 0
-99 -116 0
-117 -99 0
-99 -118 0
-99 -119 0
-99 -120 0
-99 -121 0
-99 -122 0
-123 -99 0
-124 -99 0
-99 -125 0
-99 -126 0
-101 -100 0
-102 -100 0
-103 -100 0
-104 -100 0
-110 -100 0
-111 -100 0
-112 -100 0
-113 -100 0
-114 -100 0
-115 -100 0
-116 -100 0
-117 -100 0
-118 -100 0
-119 -100 0
-120 -100 0
-121 -100 0
-122 -100 0
-123 -100 0
-124 -100 0
-125 -100 0
-126 -100 0
-102 -101 0
-101 -103 0
-104 -101 0
-110 -101 0
-111 -101 0
-101 -112 0
-101 -113 0
-101 -114 0
-101 -115 0
-116 -101 0
-117 -101 0
-101 -118 0
-101 -119 0
-101 -120 0
-101 -121 0
-122 -101 0
-123 -101 0
-124 -101 0
-101 -125 0
-101 -126 0
-102 -103 0
-102 -104 0
-110 -102 0
-102 -111 0
-102 -112 0
-102 -113 0
-102 -114 0
-102 -115 0
-102 -116 0
-117 -102 0
-102 -118 0
-102 -119 0
-102 -120 0
-102 -121 0
-102 -122 0
-123 -102 0
-124 -102 0
-102 -125 0
-102 -126 0
-104 -103 0
-110 -103 0
-111 -103 0
-112 -103 0
-113 -103 0
-114 -103 0
-115 -103 0
-116 -103 0
-117 -103 0
-118 -103 0
-119 -103 0
-120 -103 0
-121 -103 0
-122 -103 0
-123 -103 0
-124 -103 0
-125 -103 0
-103 -126 0
-110 -104 0
-111 -104 0
-104 -112 0
-104 -113 0
-104 -114 0
-104 -115 0
-116 -104 0
-117 -104 0
-104 -118 0
-104 -119 0
-104 -120 0
-104 -121 0
-122 -104 0
-123 -104 0
-124 -104 0
-104 -125 0
-104 -126 0
-110 -111 0
-110 -112 0
-110 -113 0
-110 -114 0
-110 -115 0
-110 -116 0
-110 -117 0
-110 -118 0
-110 -119 0
-110 -120 0
-110 -121 0
-110 -122 0
-110 -123 0
-110 -124 0
-110 -125 0
-110 -126 0
-111 -112 0
-111 -113 0
-111 -114 0
-111 -115 0
-111 -116 0
-117 -111 0
-111 -118 0
-111 -119 0
-111 -120 0
-111 -121 0
-111 -122 0
-123 -111 0
-124 -111 0
-111 -125 0
-111 -126 0
-113 -112 0
-114 -112 0
-112 -115 0
-116 -112 0
-117 -112 0
-112 -118 0
-119 -112 0
-120 -112 0
-121 -112 0
-122 -112 0
-123 -112 0
-124 -112 0
-125 -112 0
-112 -126 0
-114 -113 0
-113 -115 0
-116 -113 0
-117 -113 0
-113 -118 0
-119 -113 0
-120 -113 0
-113 -121 0
-122 -113 0
-123 -113 0
-124 -113 0
-113 -125 0
-113 -126 0
-114 -115 0
-116 -114 0
-117 -114 0
-114 -118 0
-114 -119 0
-120 -114 0
-114 -121 0
-122 -114 0
-123 -114 0
-124 -114 0
-114 -125 0
-114 -126 0
-116 -115 0
-117 -115 0
-118 -115 0
-119 -115 0
-120 -115 0
-121 -115 0
-122 -115 0
-123 -115 0
-124 -115 0
-125 -115 0
-115 -126 0
-117 -116 0
-116 -118 0
-116 -119 0
-116 -120 0
-116 -121 0
-122 -116 0
-123 -116 0
-124 -116 0
-116 -125 0
-116 -126 0
-117 -118 0
-117 -119 0
-117 -120 0
-117 -121 0
-117 -122 0
-123 -117 0
-124 -117 0
-117 -125 0
-117 -126 0
-119 -118 0
-120 -118 0
-121 -118 0
-122 -118 0
-123 -118 0
-124 -118 0
-125 -118 0
-118 -126 0
-120 -119 0
-119 -121 0
-122 -119 0
-123 -119 0
-124 -119 0
-119 -125 0
-119 -126 0
-120 -121 0
-122 -120 0
-123 -120 0
-124 -120 0
-120 -125 0
-120 -126 0
-122 -121 0
-123 -121 0
-124 -121 0
-121 -125 0
-121 -126 0
-123 -122 0
-124 -122 0
-122 -125 0
-122 -126 0
-124 -123 0
-123 -125 0
-123 -126 0
-124 -125 0
-124 -126 0
-125 -126 0
107 57 58 146 0
-58 -57 0
-107 -57 0
-146 -57 0
-107 -58 0
-58 -146 0
-107 -146 0
105 170 130 0
-105 -130 0
-105 -170 0
-170 -130 0
127 -110 0
71 -110 0
159 -110 0
107 -110 0
130 -110 0
2 -110 0
136 -110 0
56 -85 0
147 -85 0
159 -85 0
58 -85 0
105 -85 0
136 -85 0
5 -85 0
56 -76 0
67 -76 0
155 -76 0
13 -76 0
58 -76 0
105 -76 0
5 -76 0
144 -76 0
158 -76 0
56 -78 0
71 -78 0
58 -78 0
105 -78 0
5 -78 0
155 -124 0
146 -124 0
130 -124 0
7 -124 0
155 -123 0
58 -123 0
130 -123 0
5 -123 0
56 -87 0
147 -87 0
159 -87 0
107 -87 0
105 -87 0
2 -87 0
149 -87 0
67 -117 0
155 -117 0
146 -117 0
130 -117 0
136 -117 0
7 -117 0
56 -81 0
67 -81 0
155 -81 0
58 -81 0
105 -81 0
5 -81 0
56 -99 0
67 -99 0
155 -99 0
58 -99 0
105 -99 0
136 -99 0
5 -99 0
158 -99 0
56 -90 0
147 -90 0
57 -90 0
105 -90 0
11 -90 0
155 -67 0
68 -67 0
106 -165 0
65 -165 0
133 -165 0
135 -165 0
53 -165 0
157 -165 0
108 -165 0
56 -102 0
67 -102 0
155 -102 0
58 -102 0
105 -102 0
5 -102 0
158 -102 0
152 -102 0
127 -111 0
71 -111 0
159 -111 0
146 -111 0
130 -111 0
136 -111 0
7 -111 0
53 -72 0
70 -72 0
155 -122 0
107 -122 0
130 -122 0
2 -122 0
127 -116 0
67 -116 0
155 -116 0
107 -116 0
130 -116 0
2 -116 0
136 -116 0
106 -138 0
50 -138 0
137 -138 0
66 -138 0
128 -138 0
129 -138 0
156 -138 0
173 -138 0
56 -154 0
158 -154 0
128 -56 0
129 -56 0
135 -134 0
53 -134 0
56 -75 0
71 -75 0
159 -75 0
13 -75 0
58 -75 0
105 -75 0
5 -75 0
144 -75 0
158 -75 0
56 -79 0
71 -79 0
57 -79 0
105 -79 0
11 -79 0
56 -104 0
71 -104 0
159 -104 0
58 -104 0
105 -104 0
5 -104 0
158 -104 0
143 -104 0
56 -86 0
147 -86 0
159 -86 0
57 -86 0
105 -86 0
136 -86 0
11 -86 0
56 -101 0
67 -101 0
155 -101 0
107 -101 0
105 -101 0
2 -101 0
158 -101 0
152 -101 0
56 -95 0
71 -95 0
159 -95 0
107 -95 0
105 -95 0
2 -95 0
56 -82 0
67 -82 0
155 -82 0
57 -82 0
105 -82 0
11 -82 0
163 -136 0
106 -136 0
65 -136 0
157 -136 0
164 -136 0
56 -98 0
67 -98 0
155 -98 0
107 -98 0
105 -98 0
2 -98 0
136 -98 0
158 -98 0
56 -83 0
147 -83 0
107 -83 0
105 -83 0
2 -83 0
137 -47 0
134 -47 0
137 -48 0
134 -48 0
56 -91 0
71 -91 0
159 -91 0
107 -91 0
105 -91 0
2 -91 0
136 -91 0
56 -94 0
71 -94 0
159 -94 0
107 -94 0
105 -94 0
2 -94 0
158 -94 0
149 -94 0
67 -120 0
155 -120 0
146 -120 0
130 -120 0
7 -120 0
8 -143 0
106 -143 0
65 -143 0
157 -143 0
164 -143 0
56 -88 0
147 -88 0
107 -88 0
105 -88 0
2 -88 0
13 -144 0
106 -144 0
65 -144 0
157 -144 0
108 -144 0
164 -144 0
59 -144 0
127 -114 0
71 -114 0
159 -114 0
146 -114 0
130 -114 0
7 -114 0
163 -127 0
106 -127 0
65 -127 0
53 -127 0
66 -127 0
128 -127 0
129 -127 0
156 -127 0
173 -127 0
59 -127 0
51 -127 0
151 -127 0
127 -119 0
67 -119 0
155 -119 0
107 -119 0
130 -119 0
2 -119 0
56 -96 0
71 -96 0
159 -96 0
58 -96 0
105 -96 0
5 -96 0
158 -96 0
56 -93 0
71 -93 0
159 -93 0
57 -93 0
105 -93 0
136 -93 0
11 -93 0
106 -137 0
65 -137 0
66 -137 0
156 -137 0
153 -137 0
127 -113 0
71 -113 0
159 -113 0
107 -113 0
130 -113 0
2 -113 0
127 -121 0
67 -121 0
155 -121 0
57 -121 0
130 -121 0
11 -121 0
56 -125 0
71 -125 0
107 -125 0
170 -125 0
2 -125 0
172 -125 0
127 -112 0
71 -112 0
159 -112 0
57 -112 0
130 -112 0
136 -112 0
11 -112 0
127 -118 0
67 -118 0
155 -118 0
57 -118 0
130 -118 0
136 -118 0
11 -118 0
127 -115 0
71 -115 0
159 -115 0
57 -115 0
130 -115 0
11 -115 0
56 -97 0
71 -97 0
159 -97 0
57 -97 0
105 -97 0
158 -97 0
11 -97 0
56 -92 0
71 -92 0
159 -92 0
58 -92 0
105 -92 0
136 -92 0
5 -92 0
65 -64 0
154 -64 0
56 -77 0
71 -77 0
107 -77 0
105 -77 0
2 -77 0
56 -103 0
67 -103 0
155 -103 0
57 -103 0
105 -103 0
158 -103 0
11 -103 0
152 -103 0
154 -148 0
139 -148 0
56 -89 0
147 -89 0
58 -89 0
105 -89 0
5 -89 0
106 -150 0
65 -150 0
133 -150 0
68 -149 0
106 -149 0
65 -149 0
157 -149 0
154 -149 0
139 -149 0
62 -149 0
106 -152 0
65 -152 0
157 -152 0
108 -152 0
154 -152 0
56 -126 0
147 -126 0
107 -126 0
170 -126 0
2 -126 0
172 -126 0
56 -100 0
67 -100 0
155 -100 0
57 -100 0
105 -100 0
136 -100 0
158 -100 0
11 -100 0
106 -60 0
50 -60 0
66 -60 0
56 -84 0
147 -84 0
159 -84 0
107 -84 0
105 -84 0
2 -84 0
136 -84 0
137 -30 0
134 -30 0
65 -63 0
154 -63 0
56 -80 0
67 -80 0
155 -80 0
107 -80 0
105 -80 0
2 -80 0
56 -25 0
71 -25 0
131 -25 0
168 -25 0
15 -25 0
8 -25 0
25 -71 -56 -168 -131 -15 -8 0
56 -37 0
71 -37 0
159 -37 0
167 -37 0
15 -37 0
13 -37 0
37 -71 -56 -159 -167 -15 -13 0
56 -21 0
147 -21 0
159 -21 0
167 -21 0
15 -21 0
8 -21 0
21 -56 -147 -159 -167 -15 -8 0
56 -18 0
147 -18 0
159 -18 0
166 -18 0
14 -18 0
8 -18 0
18 -56 -147 -159 -166 -14 -8 0
56 -24 0
71 -24 0
159 -24 0
168 -24 0
15 -24 0
8 -24 0
24 -71 -56 -168 -159 -15 -8 0
56 -19 0
147 -19 0
131 -19 0
166 -19 0
14 -19 0
8 -19 0
19 -56 -131 -147 -166 -14 -8 0
56 -28 0
67 -28 0
155 -28 0
168 -28 0
15 -28 0
8 -28 0
28 -155 -67 -56 -168 -15 -8 0
56 -31 0
147 -31 0
159 -31 0
169 -31 0
15 -31 0
13 -31 0
31 -56 -169 -147 -159 -15 -13 0
56 -32 0
147 -32 0
159 -32 0
168 -32 0
15 -32 0
13 -32 0
32 -56 -168 -147 -159 -15 -13 0
56 -43 0
67 -43 0
155 -43 0
168 -43 0
15 -43 0
13 -43 0
43 -155 -67 -56 -168 -15 -13 0
56 -23 0
71 -23 0
159 -23 0
167 -23 0
15 -23 0
8 -23 0
23 -71 -56 -159 -167 -15 -8 0
56 -44 0
67 -44 0
155 -44 0
169 -44 0
15 -44 0
13 -44 0
44 -155 -67 -56 -169 -15 -13 0
56 -39 0
71 -39 0
131 -39 0
168 -39 0
15 -39 0
13 -39 0
39 -71 -56 -168 -131 -15 -13 0
56 -38 0
71 -38 0
159 -38 0
168 -38 0
15 -38 0
13 -38 0
38 -71 -56 -168 -159 -15 -13 0
56 -20 0
71 -20 0
159 -20 0
166 -20 0
14 -20 0
8 -20 0
20 -71 -56 -159 -166 -14 -8 0
127 -46 0
67 -46 0
155 -46 0
169 -46 0
15 -46 0
13 -46 0
46 -155 -67 -127 -169 -15 -13 0
138 -47 0
67 -47 0
155 -47 0
168 -47 0
15 -47 0
13 -47 0
47 -155 -67 -138 -168 -15 -13 0
56 -33 0
147 -33 0
131 -33 0
169 -33 0
15 -33 0
13 -33 0
33 -56 -169 -131 -147 -15 -13 0
138 -48 0
67 -48 0
155 -48 0
169 -48 0
15 -48 0
13 -48 0
48 -155 -67 -138 -169 -15 -13 0
56 -34 0
147 -34 0
131 -34 0
168 -34 0
15 -34 0
13 -34 0
34 -56 -168 -131 -147 -15 -13 0
127 -45 0
67 -45 0
155 -45 0
168 -45 0
15 -45 0
13 -45 0
45 -155 -67 -127 -168 -15 -13 0
127 -26 0
71 -26 0
159 -26 0
168 -26 0
15 -26 0
8 -26 0
26 -71 -127 -168 -159 -15 -8 0
127 -29 0
67 -29 0
155 -29 0
168 -29 0
15 -29 0
8 -29 0
29 -155 -67 -127 -168 -15 -8 0
138 -30 0
67 -30 0
155 -30 0
168 -30 0
15 -30 0
8 -30 0
30 -155 -67 -138 -168 -15 -8 0
127 -41 0
71 -41 0
159 -41 0
169 -41 0
15 -41 0
13 -41 0
41 -71 -127 -169 -159 -15 -13 0
56 -22 0
147 -22 0
131 -22 0
168 -22 0
15 -22 0
8 -22 0
22 -56 -168 -131 -147 -15 -8 0
56 -36 0
71 -36 0
131 -36 0
169 -36 0
15 -36 0
13 -36 0
36 -71 -56 -169 -131 -15 -13 0
56 -27 0
67 -27 0
155 -27 0
167 -27 0
15 -27 0
8 -27 0
27 -155 -67 -56 -167 -15 -8 0
127 -40 0
71 -40 0
159 -40 0
168 -40 0
15 -40 0
13 -40 0
40 -71 -127 -168 -159 -15 -13 0
56 -42 0
67 -42 0
155 -42 0
167 -42 0
15 -42 0
13 -42 0
42 -155 -67 -56 -167 -15 -13 0
56 -35 0
71 -35 0
159 -35 0
169 -35 0
15 -35 0
13 -35 0
35 -71 -56 -169 -159 -15 -13 0
-110 -67 0
-110 -56 0
-110 -131 0
-110 -147 0
-85 -67 0
-85 -71 0
-85 -127 0
-85 -131 0
-85 -166 0
-21 -144 0
-21 -137 0
-21 -60 0
-155 -147 0
-76 -71 0
-76 -127 0
-76 -131 0
-76 -147 0
-76 -159 0
-76 -3 0
-76 -166 0
-76 -167 0
-76 -8 0
-76 -10 0
-76 -12 0
-76 -16 0
-76 -49 0
-78 -67 0
-78 -127 0
-78 -147 0
-124 -71 0
-124 -56 0
-124 -131 0
-124 -147 0
-124 -159 0
-123 -71 0
-123 -56 0
-123 -131 0
-123 -147 0
-123 -159 0
-174 -166 0
-174 -167 0
-31 -144 0
-31 -137 0
-87 -67 0
-87 -71 0
-87 -127 0
-87 -131 0
-87 -3 0
-87 -166 0
-87 -10 0
-87 -12 0
-87 -16 0
-87 -49 0
-32 -144 0
-32 -137 0
-117 -71 0
-117 -56 0
-117 -131 0
-117 -147 0
-117 -159 0
-117 -9 0
-117 -10 0
-81 -71 0
-81 -127 0
-81 -147 0
-99 -71 0
-99 -127 0
-99 -147 0
-90 -67 0
-90 -71 0
-90 -127 0
-90 -4 0
-90 -3 0
-102 -71 0
-102 -127 0
-102 -147 0
-71 -74 0
-74 -147 0
-67 -111 0
-111 -56 0
-111 -131 0
-111 -147 0
-111 -9 0
-111 -10 0
-122 -71 0
-122 -56 0
-122 -131 0
-122 -147 0
-122 -159 0
-122 -9 0
-122 -12 0
-122 -16 0
-122 -49 0
-116 -71 0
-116 -56 0
-116 -131 0
-116 -147 0
-116 -159 0
-138 -71 0
-138 -143 0
-138 -144 0
-138 -170 0
-138 -147 0
-138 -51 0
-11 -4 0
-57 -4 0
-134 -54 0
-134 -55 0
-155 -75 0
-67 -75 0
-75 -127 0
-75 -131 0
-75 -147 0
-75 -3 0
-75 -166 0
-75 -167 0
-75 -8 0
-75 -10 0
-75 -12 0
-75 -16 0
-75 -49 0
-67 -79 0
-79 -127 0
-79 -4 0
-79 -147 0
-79 -3 0
-2 -5 0
-2 -58 0
-2 -7 0
-2 -146 0
-2 -11 0
-2 -57 0
-67 -104 0
-104 -127 0
-104 -131 0
-104 -4 0
-104 -147 0
-104 -3 0
-104 -166 0
-104 -1 0
-104 -10 0
-104 -12 0
-104 -16 0
-104 -49 0
-67 -86 0
-71 -86 0
-86 -127 0
-86 -131 0
-86 -4 0
-86 -3 0
-86 -166 0
-56 -7 0
-105 -7 0
-107 -7 0
-5 -7 0
-58 -7 0
-7 -11 0
-7 -57 0
-107 -5 0
-5 -146 0
-5 -11 0
-5 -57 0
-71 -101 0
-101 -127 0
-101 -147 0
-67 -95 0
-95 -127 0
-95 -131 0
-95 -147 0
-95 -166 0
-71 -82 0
-82 -127 0
-82 -4 0
-82 -147 0
-82 -3 0
-136 -143 0
-136 -137 0
-136 -54 0
-136 -55 0
-136 -148 0
-136 -149 0
-136 -50 0
-136 -51 0
-136 -166 0
-71 -98 0
-98 -127 0
-98 -147 0
-67 -83 0
-71 -83 0
-83 -127 0
-67 -171 0
-171 -127 0
-67 -91 0
-91 -127 0
-91 -131 0
-91 -147 0
-91 -166 0
-67 -94 0
-94 -127 0
-94 -131 0
-94 -147 0
-94 -3 0
-94 -166 0
-94 -10 0
-94 -12 0
-94 -16 0
-94 -49 0
-71 -120 0
-56 -120 0
-120 -131 0
-120 -147 0
-120 -159 0
-120 -9 0
-120 -10 0
-67 -143 0
-143 -144 0
-143 -127 0
-143 -137 0
-143 -54 0
-143 -163 0
-143 -55 0
-143 -149 0
-143 -152 0
-143 -131 0
-143 -4 0
-143 -147 0
-143 -50 0
-143 -51 0
-143 -3 0
-143 -13 0
-143 -1 0
-143 -10 0
-143 -12 0
-143 -16 0
-143 -49 0
-143 -162 0
-142 -141 0
-142 -109 0
-67 -88 0
-71 -88 0
-88 -127 0
-144 -54 0
-144 -55 0
-144 -3 0
-144 -10 0
-144 -12 0
-144 -16 0
-144 -49 0
-67 -114 0
-56 -114 0
-114 -131 0
-114 -147 0
-114 -9 0
-114 -10 0
-141 -109 0
-127 -170 0
-127 -147 0
-71 -119 0
-56 -119 0
-119 -131 0
-119 -147 0
-119 -159 0
-67 -96 0
-127 -96 0
-96 -131 0
-96 -147 0
-96 -166 0
-29 -52 0
-30 -52 0
-147 -52 0
-67 -93 0
-127 -93 0
-93 -131 0
-93 -4 0
-93 -147 0
-93 -3 0
-93 -166 0
-71 -137 0
-137 -147 0
-137 -9 0
-137 -12 0
-137 -16 0
-137 -49 0
-144 -50 0
-26 -50 0
-54 -50 0
-55 -50 0
-144 -51 0
-67 -113 0
-56 -113 0
-113 -131 0
-113 -147 0
-60 -147 0
-71 -121 0
-56 -121 0
-121 -131 0
-121 -4 0
-121 -147 0
-121 -159 0
-121 -3 0
-67 -54 0
-73 -54 0
-127 -54 0
-54 -55 0
-54 -148 0
-54 -149 0
-54 -152 0
-54 -151 0
-127 -105 0
-105 -146 0
-67 -125 0
-127 -125 0
-125 -147 0
-144 -18 0
-137 -18 0
-60 -18 0
-67 -55 0
-73 -55 0
-127 -55 0
-55 -148 0
-55 -149 0
-55 -152 0
-55 -151 0
-144 -19 0
-137 -19 0
-60 -19 0
-67 -112 0
-56 -112 0
-112 -131 0
-112 -4 0
-112 -147 0
-112 -3 0
-71 -118 0
-56 -118 0
-118 -131 0
-118 -4 0
-118 -147 0
-118 -159 0
-118 -3 0
-67 -115 0
-56 -115 0
-115 -131 0
-115 -4 0
-115 -147 0
-115 -3 0
-131 -109 0
-147 -109 0
-109 -166 0
-67 -97 0
-127 -97 0
-97 -131 0
-97 -4 0
-97 -147 0
-97 -3 0
-97 -166 0
-67 -92 0
-127 -92 0
-92 -131 0
-92 -147 0
-92 -166 0
-107 -11 0
-58 -11 0
-146 -11 0
-67 -77 0
-127 -77 0
-77 -147 0
-71 -103 0
-127 -103 0
-103 -4 0
-103 -147 0
-103 -3 0
-67 -148 0
-71 -148 0
-143 -148 0
-144 -148 0
-148 -149 0
-148 -152 0
-11 -3 0
-57 -3 0
-67 -150 0
-71 -150 0
-67 -89 0
-71 -89 0
-127 -89 0
-67 -149 0
-127 -149 0
-149 -5 0
-149 -58 0
-149 -11 0
-149 -57 0
-149 -131 0
-149 -3 0
-149 -166 0
-149 -10 0
-149 -12 0
-149 -16 0
-149 -49 0
-144 -152 0
-127 -152 0
-152 -131 0
-152 -147 0
-67 -126 0
-71 -126 0
-127 -126 0
-71 -153 0
-147 -153 0
-71 -100 0
-127 -100 0
-100 -4 0
-100 -147 0
-100 -3 0
-144 -60 0
-127 -60 0
-60 -162 0
-67 -84 0
-71 -84 0
-127 -84 0
-84 -131 0
-84 -166 0
-170 -5 0
-170 -7 0
-170 -146 0
-170 -11 0
-71 -80 0
-127 -80 0
-80 -147 0
